33D32945 STP File, STP Format Version 1.0

SECTION Comment
Name    "Series C" 
Creator "A. M. Costa" 
Format  "Z.H. Fu and J. K. Hao"
Remark  "Sparse graph with random weights"
#TotalEdgeCost 3470
#BudgetFraction 30
END 

SECTION Graph 
Nodes 500 
Edges 625 
Root 1
Budget 115
HopLimit 25
E 1 46 5 
E 2 81 9 
E 2 136 1 
E 2 285 7 
E 2 290 5 
E 2 451 10 
E 3 55 9 
E 3 67 4 
E 3 346 6 
E 4 83 5 
E 4 306 5 
E 4 460 3 
E 5 102 7 
E 5 415 6 
E 5 499 2 
E 6 108 8 
E 7 357 2 
E 7 405 6 
E 7 487 8 
E 8 451 1 
E 9 62 6 
E 9 101 9 
E 9 401 2 
E 10 46 5 
E 10 267 10 
E 10 368 2 
E 11 161 3 
E 11 303 1 
E 11 414 4 
E 12 357 3 
E 13 44 1 
E 13 170 4 
E 13 181 8 
E 13 277 8 
E 13 347 4 
E 13 453 6 
E 13 478 1 
E 14 165 10 
E 15 355 5 
E 16 43 7 
E 16 125 10 
E 16 357 5 
E 16 364 6 
E 16 483 3 
E 17 40 7 
E 17 42 3 
E 17 264 2 
E 17 276 8 
E 17 304 2 
E 17 399 6 
E 18 393 5 
E 19 357 8 
E 20 188 3 
E 20 203 1 
E 20 406 9 
E 21 270 3 
E 21 365 8 
E 21 442 4 
E 22 121 2 
E 23 101 1 
E 23 151 2 
E 23 207 1 
E 23 250 6 
E 24 451 3 
E 25 435 7 
E 26 216 7 
E 26 428 4 
E 27 158 10 
E 27 216 3 
E 28 178 9 
E 28 266 7 
E 29 469 2 
E 30 218 4 
E 31 208 3 
E 31 452 6 
E 32 65 8 
E 32 94 7 
E 32 95 6 
E 33 45 3 
E 33 216 10 
E 33 392 5 
E 33 414 5 
E 34 292 4 
E 34 377 9 
E 34 390 2 
E 34 447 10 
E 35 108 7 
E 36 115 4 
E 36 163 8 
E 36 431 8 
E 37 418 2 
E 38 67 9 
E 38 201 8 
E 38 278 5 
E 39 63 4 
E 41 107 10 
E 41 262 10 
E 41 281 4 
E 41 324 8 
E 41 391 10 
E 41 392 6 
E 41 397 6 
E 41 438 4 
E 41 469 7 
E 42 123 4 
E 44 85 10 
E 44 434 2 
E 44 478 1 
E 45 392 9 
E 46 332 7 
E 46 389 2 
E 46 469 9 
E 47 395 8 
E 48 129 4 
E 48 399 4 
E 49 288 6 
E 49 393 8 
E 50 144 3 
E 51 179 8 
E 51 305 1 
E 51 466 9 
E 52 105 7 
E 52 246 3 
E 52 377 7 
E 53 152 2 
E 53 162 8 
E 53 446 2 
E 54 63 4 
E 54 187 10 
E 54 496 6 
E 55 261 8 
E 56 80 4 
E 57 481 3 
E 58 453 4 
E 59 148 10 
E 59 247 9 
E 59 304 1 
E 60 246 9 
E 60 255 8 
E 60 269 1 
E 60 396 1 
E 60 401 1 
E 61 337 10 
E 61 369 1 
E 62 142 7 
E 63 80 1 
E 63 234 9 
E 64 390 10 
E 65 350 6 
E 66 353 5 
E 66 435 5 
E 67 260 10 
E 67 355 2 
E 67 484 1 
E 68 78 8 
E 69 202 10 
E 69 317 2 
E 69 488 7 
E 70 210 3 
E 70 484 10 
E 71 291 7 
E 72 229 1 
E 72 270 6 
E 73 454 4 
E 74 204 9 
E 74 232 8 
E 74 418 2 
E 75 152 6 
E 76 90 2 
E 76 106 8 
E 76 230 4 
E 76 270 4 
E 76 392 7 
E 76 415 4 
E 76 448 3 
E 77 121 7 
E 77 272 3 
E 77 472 1 
E 78 217 9 
E 78 287 7 
E 78 305 3 
E 78 339 10 
E 79 83 3 
E 79 211 9 
E 79 214 9 
E 79 249 6 
E 79 299 7 
E 79 314 5 
E 79 474 5 
E 80 183 9 
E 80 188 4 
E 81 118 8 
E 81 192 2 
E 81 210 9 
E 81 316 9 
E 81 370 4 
E 82 83 6 
E 82 381 8 
E 83 84 1 
E 83 95 5 
E 83 266 5 
E 83 383 7 
E 83 409 8 
E 84 427 6 
E 85 227 9 
E 85 448 10 
E 85 451 4 
E 86 317 9 
E 86 361 8 
E 87 249 9 
E 88 168 10 
E 88 179 8 
E 88 197 4 
E 88 478 4 
E 89 103 2 
E 90 116 7 
E 91 400 6 
E 92 491 10 
E 93 103 2 
E 93 160 1 
E 95 264 2 
E 96 239 7 
E 96 441 1 
E 97 142 9 
E 97 261 3 
E 97 283 9 
E 97 355 8 
E 97 380 8 
E 98 351 7 
E 99 325 3 
E 99 379 8 
E 99 389 4 
E 99 411 8 
E 99 447 8 
E 100 447 4 
E 101 165 7 
E 101 378 5 
E 102 162 7 
E 102 394 1 
E 103 242 6 
E 103 344 8 
E 104 146 9 
E 104 225 8 
E 104 423 9 
E 104 444 2 
E 105 167 9 
E 105 438 9 
E 107 455 7 
E 108 153 6 
E 108 187 10 
E 108 224 10 
E 108 425 8 
E 108 487 3 
E 109 329 3 
E 109 493 3 
E 110 243 6 
E 111 214 7 
E 112 145 8 
E 112 199 3 
E 112 371 6 
E 113 440 8 
E 114 288 10 
E 114 500 9 
E 115 141 3 
E 116 401 10 
E 117 151 9 
E 117 195 4 
E 117 293 3 
E 117 349 6 
E 117 350 2 
E 117 420 8 
E 117 454 10 
E 119 398 3 
E 120 295 2 
E 120 368 4 
E 120 429 7 
E 122 195 6 
E 123 146 7 
E 123 363 2 
E 123 376 2 
E 123 421 5 
E 123 424 2 
E 124 241 6 
E 125 245 7 
E 125 253 2 
E 125 254 4 
E 125 307 9 
E 125 315 3 
E 125 428 7 
E 126 398 4 
E 127 172 4 
E 128 392 1 
E 128 420 7 
E 128 435 5 
E 130 168 7 
E 131 161 10 
E 131 390 4 
E 131 400 2 
E 131 481 3 
E 132 270 8 
E 133 463 9 
E 134 365 1 
E 135 355 10 
E 137 499 10 
E 138 495 7 
E 139 160 4 
E 139 443 2 
E 140 322 2 
E 140 370 8 
E 141 499 5 
E 142 219 2 
E 142 249 7 
E 142 343 3 
E 143 493 3 
E 144 225 4 
E 144 288 7 
E 144 412 3 
E 145 164 10 
E 145 397 8 
E 146 301 8 
E 146 341 9 
E 146 426 10 
E 146 478 2 
E 147 226 1 
E 148 387 10 
E 149 184 6 
E 149 275 3 
E 149 318 10 
E 149 373 1 
E 149 470 2 
E 150 351 7 
E 151 299 4 
E 151 392 8 
E 152 200 1 
E 152 272 10 
E 152 468 2 
E 152 499 8 
E 153 338 3 
E 153 346 8 
E 154 374 4 
E 154 486 8 
E 155 167 10 
E 155 391 3 
E 155 403 9 
E 156 464 5 
E 157 187 8 
E 157 495 1 
E 158 265 6 
E 159 428 4 
E 160 188 5 
E 160 246 5 
E 160 296 7 
E 160 469 2 
E 161 462 4 
E 162 234 5 
E 164 190 1 
E 164 335 4 
E 164 408 6 
E 164 482 6 
E 165 483 10 
E 166 324 2 
E 167 305 10 
E 168 479 7 
E 169 203 6 
E 169 432 6 
E 170 312 5 
E 171 402 8 
E 172 396 3 
E 173 175 10 
E 173 228 5 
E 173 236 5 
E 173 270 8 
E 173 474 5 
E 174 351 7 
E 174 397 9 
E 175 415 4 
E 176 436 3 
E 177 368 4 
E 177 452 9 
E 180 274 8 
E 180 279 4 
E 181 288 1 
E 181 471 3 
E 182 356 1 
E 183 316 10 
E 183 337 3 
E 184 310 1 
E 185 401 5 
E 185 453 6 
E 186 226 8 
E 186 365 10 
E 186 392 1 
E 186 398 8 
E 187 371 8 
E 187 379 4 
E 187 391 1 
E 187 499 2 
E 188 324 8 
E 189 484 4 
E 191 208 6 
E 191 321 4 
E 191 351 4 
E 193 348 1 
E 193 354 3 
E 193 443 4 
E 194 213 7 
E 195 300 8 
E 195 327 6 
E 195 450 9 
E 196 253 9 
E 196 378 7 
E 196 406 10 
E 196 483 10 
E 197 268 3 
E 198 287 4 
E 198 451 1 
E 200 328 3 
E 200 384 10 
E 201 350 6 
E 202 387 10 
E 204 209 9 
E 204 326 2 
E 204 355 10 
E 204 374 5 
E 205 238 7 
E 206 302 7 
E 206 336 6 
E 209 445 1 
E 211 218 2 
E 211 358 5 
E 212 329 10 
E 212 350 1 
E 213 488 4 
E 214 297 4 
E 214 485 7 
E 215 399 6 
E 217 427 6 
E 218 437 4 
E 219 335 10 
E 220 317 2 
E 221 238 7 
E 221 424 7 
E 222 235 8 
E 223 366 9 
E 223 492 6 
E 224 463 4 
E 225 391 10 
E 225 473 7 
E 226 327 3 
E 226 470 5 
E 226 497 4 
E 227 259 9 
E 227 296 9 
E 228 273 7 
E 230 490 4 
E 231 239 9 
E 232 357 6 
E 233 272 4 
E 235 455 2 
E 235 494 1 
E 237 342 4 
E 237 362 4 
E 237 409 7 
E 238 380 8 
E 238 455 5 
E 239 429 7 
E 240 368 9 
E 241 474 10 
E 243 375 4 
E 243 388 3 
E 244 432 5 
E 244 459 10 
E 246 490 6 
E 247 251 10 
E 248 341 3 
E 249 455 6 
E 251 497 10 
E 252 374 3 
E 252 379 4 
E 256 438 5 
E 256 467 4 
E 257 427 1 
E 258 392 1 
E 259 434 9 
E 260 390 5 
E 260 480 7 
E 261 298 3 
E 261 313 10 
E 261 463 7 
E 262 271 8 
E 262 283 7 
E 263 277 10 
E 263 429 1 
E 265 488 8 
E 266 375 4 
E 270 370 6 
E 271 469 8 
E 272 372 1 
E 274 409 7 
E 280 340 7 
E 281 380 7 
E 282 367 5 
E 282 368 1 
E 283 402 8 
E 283 489 6 
E 284 367 3 
E 285 410 9 
E 286 443 8 
E 289 377 5 
E 291 322 10 
E 291 370 2 
E 292 316 3 
E 293 397 1 
E 294 344 7 
E 297 404 4 
E 298 479 2 
E 299 393 5 
E 302 334 8 
E 302 440 6 
E 302 491 8 
E 304 426 9 
E 304 457 7 
E 307 343 2 
E 308 323 1 
E 309 469 6 
E 310 351 2 
E 311 318 9 
E 312 399 9 
E 312 410 4 
E 315 375 8 
E 315 397 2 
E 315 449 10 
E 315 468 4 
E 316 409 9 
E 317 381 9 
E 319 355 3 
E 320 487 10 
E 323 340 1 
E 325 391 3 
E 326 498 2 
E 329 354 1 
E 330 432 2 
E 331 444 9 
E 331 484 10 
E 333 487 2 
E 336 408 7 
E 337 356 1 
E 337 394 7 
E 337 485 7 
E 339 368 5 
E 340 344 10 
E 340 469 7 
E 340 473 9 
E 340 489 1 
E 341 458 1 
E 345 357 5 
E 345 483 7 
E 345 491 8 
E 347 360 4 
E 348 495 1 
E 349 496 3 
E 350 476 3 
E 351 391 6 
E 351 451 5 
E 352 378 8 
E 353 359 4 
E 355 454 2 
E 355 488 7 
E 356 380 8 
E 356 385 7 
E 356 445 10 
E 356 455 4 
E 356 487 3 
E 357 382 3 
E 357 399 5 
E 357 409 3 
E 358 441 6 
E 359 395 4 
E 360 404 6 
E 361 400 4 
E 364 389 7 
E 369 471 1 
E 370 409 6 
E 371 407 3 
E 380 419 3 
E 382 420 5 
E 386 423 8 
E 387 461 2 
E 389 402 6 
E 391 462 4 
E 392 426 9 
E 392 470 4 
E 395 401 10 
E 396 416 1 
E 397 432 9 
E 397 477 1 
E 399 454 8 
E 400 436 7 
E 410 412 3 
E 410 417 6 
E 413 433 6 
E 413 499 8 
E 417 422 4 
E 418 470 3 
E 420 493 1 
E 427 428 7 
E 428 436 9 
E 429 499 5 
E 430 478 7 
E 432 488 3 
E 438 439 1 
E 443 451 4 
E 444 459 4 
E 445 465 7 
E 445 474 3 
E 446 455 4 
E 446 464 1 
E 450 471 5 
E 452 483 4 
E 456 477 6 
E 468 497 1 
E 470 495 10 
E 475 493 9 
E 487 489 2 
E 487 492 2 
END 

SECTION ProfitableVertices 
ProfitableVertices 250 
PV 1 41
PV 5 75
PV 6 81
PV 7 63
PV 10 30
PV 12 59
PV 13 73
PV 14 19
PV 17 45
PV 18 47
PV 19 31
PV 20 69
PV 22 80
PV 26 32
PV 27 77
PV 31 66
PV 32 74
PV 35 3
PV 36 63
PV 37 77
PV 38 6
PV 39 5
PV 41 80
PV 42 75
PV 45 6
PV 47 79
PV 48 67
PV 50 70
PV 55 65
PV 58 32
PV 60 67
PV 62 68
PV 64 94
PV 65 17
PV 69 63
PV 72 41
PV 76 77
PV 77 84
PV 79 94
PV 81 88
PV 82 72
PV 83 83
PV 84 33
PV 85 90
PV 88 23
PV 92 66
PV 93 4
PV 94 22
PV 96 33
PV 98 66
PV 100 44
PV 101 88
PV 103 92
PV 104 93
PV 107 24
PV 108 33
PV 110 88
PV 112 82
PV 117 55
PV 118 86
PV 119 37
PV 120 62
PV 122 30
PV 123 11
PV 126 29
PV 127 24
PV 128 8
PV 129 41
PV 130 85
PV 131 40
PV 134 37
PV 135 34
PV 137 93
PV 140 24
PV 142 3
PV 143 19
PV 151 28
PV 152 4
PV 153 57
PV 156 17
PV 158 74
PV 161 54
PV 162 61
PV 164 76
PV 165 37
PV 166 22
PV 170 84
PV 171 10
PV 174 63
PV 177 55
PV 179 71
PV 181 74
PV 186 6
PV 188 55
PV 190 77
PV 192 11
PV 193 49
PV 194 25
PV 197 78
PV 201 62
PV 203 13
PV 208 20
PV 209 10
PV 210 26
PV 211 28
PV 212 34
PV 215 74
PV 216 69
PV 219 50
PV 220 23
PV 221 45
PV 225 26
PV 226 47
PV 228 3
PV 229 43
PV 231 39
PV 233 38
PV 234 35
PV 235 69
PV 236 91
PV 238 62
PV 241 44
PV 245 50
PV 246 93
PV 247 32
PV 250 5
PV 252 97
PV 253 90
PV 255 40
PV 257 12
PV 261 16
PV 264 79
PV 268 74
PV 269 65
PV 270 16
PV 271 27
PV 272 77
PV 274 97
PV 275 68
PV 276 2
PV 277 84
PV 278 5
PV 282 31
PV 283 26
PV 284 66
PV 285 55
PV 287 88
PV 288 33
PV 290 90
PV 293 47
PV 295 70
PV 296 65
PV 299 9
PV 302 61
PV 306 54
PV 308 34
PV 309 97
PV 310 38
PV 311 85
PV 318 73
PV 319 94
PV 320 34
PV 321 29
PV 325 99
PV 326 78
PV 331 98
PV 333 62
PV 334 92
PV 336 76
PV 339 90
PV 340 56
PV 341 67
PV 342 56
PV 343 22
PV 345 66
PV 346 12
PV 352 97
PV 354 14
PV 355 96
PV 356 4
PV 360 53
PV 361 89
PV 362 9
PV 364 2
PV 367 7
PV 372 14
PV 374 1
PV 375 69
PV 378 55
PV 382 58
PV 385 93
PV 386 58
PV 387 33
PV 388 23
PV 389 93
PV 390 58
PV 391 43
PV 392 85
PV 394 97
PV 395 56
PV 399 41
PV 400 98
PV 401 7
PV 404 1
PV 405 8
PV 407 45
PV 410 42
PV 416 17
PV 419 6
PV 420 38
PV 422 16
PV 426 80
PV 427 98
PV 432 94
PV 435 19
PV 437 13
PV 438 99
PV 442 59
PV 445 1
PV 451 62
PV 452 82
PV 454 30
PV 455 86
PV 456 20
PV 458 65
PV 459 53
PV 461 43
PV 462 13
PV 463 3
PV 464 94
PV 466 42
PV 467 18
PV 468 26
PV 470 15
PV 472 61
PV 474 43
PV 475 55
PV 479 41
PV 480 39
PV 482 13
PV 483 71
PV 484 6
PV 486 4
PV 487 59
PV 488 51
PV 490 70
PV 495 15
PV 497 91
PV 498 50
PV 499 65
END 

EOF 
